(declare-fun lit_b11 () (_ FloatingPoint 8 24))
(assert (fp.isNormal lit_b11))
(declare-fun lit_b86 () (_ FloatingPoint 8 24))
(assert (fp.isNormal lit_b86))
(declare-fun lit_b116 () (_ FloatingPoint 8 24))
(assert (fp.isNormal lit_b116))
(declare-fun lit_b104 () (_ FloatingPoint 8 24))
(assert (fp.isNormal lit_b104))
(declare-fun lit_b80 () (_ FloatingPoint 8 24))
(assert (fp.isNormal lit_b80))
(declare-fun lit_b41 () (_ FloatingPoint 8 24))
(assert (fp.isNormal lit_b41))
(declare-fun lit_b98 () (_ FloatingPoint 8 24))
(assert (fp.isNormal lit_b98))
(declare-fun lit_b128 () (_ FloatingPoint 8 24))
(assert (fp.isNormal lit_b128))
(declare-fun lit_b110 () (_ FloatingPoint 8 24))
(assert (fp.isNormal lit_b110))
(declare-fun lit_b35 () (_ FloatingPoint 8 24))
(assert (fp.isNormal lit_b35))
(declare-fun lit_b122 () (_ FloatingPoint 8 24))
(assert (fp.isNormal lit_b122))
(declare-fun lit_b17 () (_ FloatingPoint 8 24))
(assert (fp.isNormal lit_b17))
(declare-fun lit_b89 () (_ FloatingPoint 8 24))
(assert (fp.isNormal lit_b89))
(declare-fun lit_b220 () (_ FloatingPoint 8 24))
(assert (fp.isNormal lit_b220))
(declare-fun lit_b62 () (_ FloatingPoint 8 24))
(assert (fp.isNormal lit_b62))
(declare-fun lit_b92 () (_ FloatingPoint 8 24))
(assert (fp.isNormal lit_b92))
(declare-fun lit_b10 () (_ FloatingPoint 8 24))
(assert (fp.isNormal lit_b10))
(declare-fun lit_b71 () (_ FloatingPoint 8 24))
(assert (fp.isNormal lit_b71))
(declare-fun lit_b56 () (_ FloatingPoint 8 24))
(assert (fp.isNormal lit_b56))
(declare-fun lit_b119 () (_ FloatingPoint 8 24))
(assert (fp.isNormal lit_b119))
(declare-fun lit_b65 () (_ FloatingPoint 8 24))
(assert (fp.isNormal lit_b65))
(declare-fun lit_b29 () (_ FloatingPoint 8 24))
(assert (fp.isNormal lit_b29))
(declare-fun lit_b23 () (_ FloatingPoint 8 24))
(assert (fp.isNormal lit_b23))
(declare-fun lit_b68 () (_ FloatingPoint 8 24))
(assert (fp.isNormal lit_b68))
(declare-fun lit_b20 () (_ FloatingPoint 8 24))
(assert (fp.isNormal lit_b20))
(declare-fun lit_b59 () (_ FloatingPoint 8 24))
(assert (fp.isNormal lit_b59))
(declare-fun lit_b77 () (_ FloatingPoint 8 24))
(assert (fp.isNormal lit_b77))
(declare-fun lit_b107 () (_ FloatingPoint 8 24))
(assert (fp.isNormal lit_b107))
(declare-fun lit_b14 () (_ FloatingPoint 8 24))
(assert (fp.isNormal lit_b14))
(declare-fun lit_b26 () (_ FloatingPoint 8 24))
(assert (fp.isNormal lit_b26))
(declare-fun lit_b44 () (_ FloatingPoint 8 24))
(assert (fp.isNormal lit_b44))
(declare-fun lit_b50 () (_ FloatingPoint 8 24))
(assert (fp.isNormal lit_b50))
(declare-fun lit_b125 () (_ FloatingPoint 8 24))
(assert (fp.isNormal lit_b125))
(declare-fun lit_b53 () (_ FloatingPoint 8 24))
(assert (fp.isNormal lit_b53))
(declare-fun lit_b38 () (_ FloatingPoint 8 24))
(assert (fp.isNormal lit_b38))
(declare-fun lit_b101 () (_ FloatingPoint 8 24))
(assert (fp.isNormal lit_b101))
(declare-fun lit_b47 () (_ FloatingPoint 8 24))
(assert (fp.isNormal lit_b47))
(declare-fun lit_b95 () (_ FloatingPoint 8 24))
(assert (fp.isNormal lit_b95))
(declare-fun lit_b83 () (_ FloatingPoint 8 24))
(assert (fp.isNormal lit_b83))
(declare-fun lit_b113 () (_ FloatingPoint 8 24))
(assert (fp.isNormal lit_b113))
(declare-fun lit_b32 () (_ FloatingPoint 8 24))
(assert (fp.isNormal lit_b32))
(declare-fun lit_b131 () (_ FloatingPoint 8 24))
(assert (fp.isNormal lit_b131))
(declare-fun lit_b74 () (_ FloatingPoint 8 24))
(assert (fp.isNormal lit_b74))
(define-fun const_0 () (_ FloatingPoint 8 24) ((_ to_fp 8 24) RTN 0.000000000000000000000000000000000000000000000000000000000000000000000000000000000000000000000000000000000000000000000000000000000000000000000000000000000000000000000))
(define-fun lit_9 () (_ FloatingPoint 8 24) (fp.add RNE lit_b11 const_0))
(assert (fp.isNormal lit_9))
(define-fun lit_10 () (_ FloatingPoint 8 24) (fp.add RNE lit_b131 const_0))
(assert (fp.isNormal lit_10))
(define-fun lit_11 () Bool (fp.lt lit_9 lit_10))
(define-fun lit_12 () (_ FloatingPoint 8 24) (fp.add RNE lit_b10 const_0))
(assert (fp.isNormal lit_12))
(define-fun lit_13 () (_ FloatingPoint 8 24) (fp.div RNE lit_12 lit_9))
(assert (fp.isNormal lit_13))
(define-fun lit_14 () (_ FloatingPoint 8 24) (fp.add RNE lit_b14 const_0))
(assert (fp.isNormal lit_14))
(define-fun lit_15 () (_ FloatingPoint 8 24) (fp.div RNE lit_13 lit_14))
(assert (fp.isNormal lit_15))
(define-fun lit_16 () (_ FloatingPoint 8 24) (fp.add RNE lit_b17 const_0))
(assert (fp.isNormal lit_16))
(define-fun lit_17 () (_ FloatingPoint 8 24) (fp.div RNE lit_15 lit_16))
(assert (fp.isNormal lit_17))
(define-fun lit_18 () (_ FloatingPoint 8 24) (fp.add RNE lit_b20 const_0))
(assert (fp.isNormal lit_18))
(define-fun lit_19 () (_ FloatingPoint 8 24) (fp.div RNE lit_17 lit_18))
(assert (fp.isNormal lit_19))
(define-fun lit_20 () (_ FloatingPoint 8 24) (fp.add RNE lit_b23 const_0))
(assert (fp.isNormal lit_20))
(define-fun lit_21 () (_ FloatingPoint 8 24) (fp.div RNE lit_19 lit_20))
(assert (fp.isNormal lit_21))
(define-fun lit_22 () (_ FloatingPoint 8 24) (fp.add RNE lit_b26 const_0))
(assert (fp.isNormal lit_22))
(define-fun lit_23 () (_ FloatingPoint 8 24) (fp.div RNE lit_21 lit_22))
(assert (fp.isNormal lit_23))
(define-fun lit_24 () (_ FloatingPoint 8 24) (fp.add RNE lit_b29 const_0))
(assert (fp.isNormal lit_24))
(define-fun lit_25 () (_ FloatingPoint 8 24) (fp.div RNE lit_23 lit_24))
(assert (fp.isNormal lit_25))
(define-fun lit_26 () (_ FloatingPoint 8 24) (fp.add RNE lit_b32 const_0))
(assert (fp.isNormal lit_26))
(define-fun lit_27 () (_ FloatingPoint 8 24) (fp.div RNE lit_25 lit_26))
(assert (fp.isNormal lit_27))
(define-fun lit_28 () (_ FloatingPoint 8 24) (fp.add RNE lit_b35 const_0))
(assert (fp.isNormal lit_28))
(define-fun lit_29 () (_ FloatingPoint 8 24) (fp.div RNE lit_27 lit_28))
(assert (fp.isNormal lit_29))
(define-fun lit_30 () (_ FloatingPoint 8 24) (fp.add RNE lit_b38 const_0))
(assert (fp.isNormal lit_30))
(define-fun lit_31 () (_ FloatingPoint 8 24) (fp.div RNE lit_29 lit_30))
(assert (fp.isNormal lit_31))
(define-fun lit_32 () (_ FloatingPoint 8 24) (fp.add RNE lit_b41 const_0))
(assert (fp.isNormal lit_32))
(define-fun lit_33 () (_ FloatingPoint 8 24) (fp.div RNE lit_31 lit_32))
(assert (fp.isNormal lit_33))
(define-fun lit_34 () (_ FloatingPoint 8 24) (fp.add RNE lit_b44 const_0))
(assert (fp.isNormal lit_34))
(define-fun lit_35 () (_ FloatingPoint 8 24) (fp.div RNE lit_33 lit_34))
(assert (fp.isNormal lit_35))
(define-fun lit_36 () (_ FloatingPoint 8 24) (fp.add RNE lit_b47 const_0))
(assert (fp.isNormal lit_36))
(define-fun lit_37 () (_ FloatingPoint 8 24) (fp.div RNE lit_35 lit_36))
(assert (fp.isNormal lit_37))
(define-fun lit_38 () (_ FloatingPoint 8 24) (fp.add RNE lit_b50 const_0))
(assert (fp.isNormal lit_38))
(define-fun lit_39 () (_ FloatingPoint 8 24) (fp.div RNE lit_37 lit_38))
(assert (fp.isNormal lit_39))
(define-fun lit_40 () (_ FloatingPoint 8 24) (fp.add RNE lit_b53 const_0))
(assert (fp.isNormal lit_40))
(define-fun lit_41 () (_ FloatingPoint 8 24) (fp.div RNE lit_39 lit_40))
(assert (fp.isNormal lit_41))
(define-fun lit_42 () (_ FloatingPoint 8 24) (fp.add RNE lit_b56 const_0))
(assert (fp.isNormal lit_42))
(define-fun lit_43 () (_ FloatingPoint 8 24) (fp.div RNE lit_41 lit_42))
(assert (fp.isNormal lit_43))
(define-fun lit_44 () (_ FloatingPoint 8 24) (fp.add RNE lit_b59 const_0))
(assert (fp.isNormal lit_44))
(define-fun lit_45 () (_ FloatingPoint 8 24) (fp.div RNE lit_43 lit_44))
(assert (fp.isNormal lit_45))
(define-fun lit_46 () (_ FloatingPoint 8 24) (fp.add RNE lit_b62 const_0))
(assert (fp.isNormal lit_46))
(define-fun lit_47 () (_ FloatingPoint 8 24) (fp.div RNE lit_45 lit_46))
(assert (fp.isNormal lit_47))
(define-fun lit_48 () (_ FloatingPoint 8 24) (fp.add RNE lit_b65 const_0))
(assert (fp.isNormal lit_48))
(define-fun lit_49 () (_ FloatingPoint 8 24) (fp.div RNE lit_47 lit_48))
(assert (fp.isNormal lit_49))
(define-fun lit_50 () (_ FloatingPoint 8 24) (fp.add RNE lit_b68 const_0))
(assert (fp.isNormal lit_50))
(define-fun lit_51 () (_ FloatingPoint 8 24) (fp.div RNE lit_49 lit_50))
(assert (fp.isNormal lit_51))
(define-fun lit_52 () (_ FloatingPoint 8 24) (fp.add RNE lit_b71 const_0))
(assert (fp.isNormal lit_52))
(define-fun lit_53 () (_ FloatingPoint 8 24) (fp.div RNE lit_51 lit_52))
(assert (fp.isNormal lit_53))
(define-fun lit_54 () (_ FloatingPoint 8 24) (fp.add RNE lit_b74 const_0))
(assert (fp.isNormal lit_54))
(define-fun lit_55 () (_ FloatingPoint 8 24) (fp.div RNE lit_53 lit_54))
(assert (fp.isNormal lit_55))
(define-fun lit_56 () (_ FloatingPoint 8 24) (fp.add RNE lit_b77 const_0))
(assert (fp.isNormal lit_56))
(define-fun lit_57 () (_ FloatingPoint 8 24) (fp.div RNE lit_55 lit_56))
(assert (fp.isNormal lit_57))
(define-fun lit_58 () (_ FloatingPoint 8 24) (fp.add RNE lit_b80 const_0))
(assert (fp.isNormal lit_58))
(define-fun lit_59 () (_ FloatingPoint 8 24) (fp.div RNE lit_57 lit_58))
(assert (fp.isNormal lit_59))
(define-fun lit_60 () (_ FloatingPoint 8 24) (fp.add RNE lit_b83 const_0))
(assert (fp.isNormal lit_60))
(define-fun lit_61 () (_ FloatingPoint 8 24) (fp.div RNE lit_59 lit_60))
(assert (fp.isNormal lit_61))
(define-fun lit_62 () (_ FloatingPoint 8 24) (fp.add RNE lit_b86 const_0))
(assert (fp.isNormal lit_62))
(define-fun lit_63 () (_ FloatingPoint 8 24) (fp.div RNE lit_61 lit_62))
(assert (fp.isNormal lit_63))
(define-fun lit_64 () (_ FloatingPoint 8 24) (fp.add RNE lit_b89 const_0))
(assert (fp.isNormal lit_64))
(define-fun lit_65 () (_ FloatingPoint 8 24) (fp.div RNE lit_63 lit_64))
(assert (fp.isNormal lit_65))
(define-fun lit_66 () (_ FloatingPoint 8 24) (fp.add RNE lit_b92 const_0))
(assert (fp.isNormal lit_66))
(define-fun lit_67 () (_ FloatingPoint 8 24) (fp.div RNE lit_65 lit_66))
(assert (fp.isNormal lit_67))
(define-fun lit_68 () (_ FloatingPoint 8 24) (fp.add RNE lit_b95 const_0))
(assert (fp.isNormal lit_68))
(define-fun lit_69 () (_ FloatingPoint 8 24) (fp.div RNE lit_67 lit_68))
(assert (fp.isNormal lit_69))
(define-fun lit_70 () (_ FloatingPoint 8 24) (fp.add RNE lit_b98 const_0))
(assert (fp.isNormal lit_70))
(define-fun lit_71 () (_ FloatingPoint 8 24) (fp.div RNE lit_69 lit_70))
(assert (fp.isNormal lit_71))
(define-fun lit_72 () (_ FloatingPoint 8 24) (fp.add RNE lit_b101 const_0))
(assert (fp.isNormal lit_72))
(define-fun lit_73 () (_ FloatingPoint 8 24) (fp.div RNE lit_71 lit_72))
(assert (fp.isNormal lit_73))
(define-fun lit_74 () (_ FloatingPoint 8 24) (fp.add RNE lit_b104 const_0))
(assert (fp.isNormal lit_74))
(define-fun lit_75 () (_ FloatingPoint 8 24) (fp.div RNE lit_73 lit_74))
(assert (fp.isNormal lit_75))
(define-fun lit_76 () (_ FloatingPoint 8 24) (fp.add RNE lit_b107 const_0))
(assert (fp.isNormal lit_76))
(define-fun lit_77 () (_ FloatingPoint 8 24) (fp.div RNE lit_75 lit_76))
(assert (fp.isNormal lit_77))
(define-fun lit_78 () (_ FloatingPoint 8 24) (fp.add RNE lit_b110 const_0))
(assert (fp.isNormal lit_78))
(define-fun lit_79 () (_ FloatingPoint 8 24) (fp.div RNE lit_77 lit_78))
(assert (fp.isNormal lit_79))
(define-fun lit_80 () (_ FloatingPoint 8 24) (fp.add RNE lit_b113 const_0))
(assert (fp.isNormal lit_80))
(define-fun lit_81 () (_ FloatingPoint 8 24) (fp.div RNE lit_79 lit_80))
(assert (fp.isNormal lit_81))
(define-fun lit_82 () (_ FloatingPoint 8 24) (fp.add RNE lit_b116 const_0))
(assert (fp.isNormal lit_82))
(define-fun lit_83 () (_ FloatingPoint 8 24) (fp.div RNE lit_81 lit_82))
(assert (fp.isNormal lit_83))
(define-fun lit_84 () (_ FloatingPoint 8 24) (fp.add RNE lit_b119 const_0))
(assert (fp.isNormal lit_84))
(define-fun lit_85 () (_ FloatingPoint 8 24) (fp.div RNE lit_83 lit_84))
(assert (fp.isNormal lit_85))
(define-fun lit_86 () (_ FloatingPoint 8 24) (fp.add RNE lit_b122 const_0))
(assert (fp.isNormal lit_86))
(define-fun lit_87 () (_ FloatingPoint 8 24) (fp.div RNE lit_85 lit_86))
(assert (fp.isNormal lit_87))
(define-fun lit_88 () (_ FloatingPoint 8 24) (fp.add RNE lit_b125 const_0))
(assert (fp.isNormal lit_88))
(define-fun lit_89 () (_ FloatingPoint 8 24) (fp.div RNE lit_87 lit_88))
(assert (fp.isNormal lit_89))
(define-fun lit_90 () (_ FloatingPoint 8 24) (fp.add RNE lit_b128 const_0))
(assert (fp.isNormal lit_90))
(define-fun lit_91 () (_ FloatingPoint 8 24) (fp.div RNE lit_89 lit_90))
(assert (fp.isNormal lit_91))
(define-fun lit_92 () Bool (fp.lt lit_91 lit_10))
(define-fun lit_93 () Bool (and lit_11 lit_92))
(define-fun lit_94 () (_ FloatingPoint 8 24) (fp.add RNE lit_b220 const_0))
(assert (fp.isNormal lit_94))
(define-fun lit_95 () Bool (fp.lt lit_94 lit_9))
(define-fun lit_96 () Bool (and lit_93 lit_95))
(define-fun lit_97 () Bool (fp.lt lit_14 lit_10))
(define-fun lit_98 () Bool (and lit_96 lit_97))
(define-fun lit_99 () Bool (fp.lt lit_94 lit_14))
(define-fun lit_100 () Bool (and lit_98 lit_99))
(define-fun lit_101 () Bool (fp.lt lit_16 lit_10))
(define-fun lit_102 () Bool (and lit_100 lit_101))
(define-fun lit_103 () Bool (fp.lt lit_94 lit_16))
(define-fun lit_104 () Bool (and lit_102 lit_103))
(define-fun lit_105 () Bool (fp.lt lit_18 lit_10))
(define-fun lit_106 () Bool (and lit_104 lit_105))
(define-fun lit_107 () Bool (fp.lt lit_94 lit_18))
(define-fun lit_108 () Bool (and lit_106 lit_107))
(define-fun lit_109 () Bool (fp.lt lit_20 lit_10))
(define-fun lit_110 () Bool (and lit_108 lit_109))
(define-fun lit_111 () Bool (fp.lt lit_94 lit_20))
(define-fun lit_112 () Bool (and lit_110 lit_111))
(define-fun lit_113 () Bool (fp.lt lit_22 lit_10))
(define-fun lit_114 () Bool (and lit_112 lit_113))
(define-fun lit_115 () Bool (fp.lt lit_94 lit_22))
(define-fun lit_116 () Bool (and lit_114 lit_115))
(define-fun lit_117 () Bool (fp.lt lit_24 lit_10))
(define-fun lit_118 () Bool (and lit_116 lit_117))
(define-fun lit_119 () Bool (fp.lt lit_94 lit_24))
(define-fun lit_120 () Bool (and lit_118 lit_119))
(define-fun lit_121 () Bool (fp.lt lit_26 lit_10))
(define-fun lit_122 () Bool (and lit_120 lit_121))
(define-fun lit_123 () Bool (fp.lt lit_94 lit_26))
(define-fun lit_124 () Bool (and lit_122 lit_123))
(define-fun lit_125 () Bool (fp.lt lit_28 lit_10))
(define-fun lit_126 () Bool (and lit_124 lit_125))
(define-fun lit_127 () Bool (fp.lt lit_94 lit_28))
(define-fun lit_128 () Bool (and lit_126 lit_127))
(define-fun lit_129 () Bool (fp.lt lit_30 lit_10))
(define-fun lit_130 () Bool (and lit_128 lit_129))
(define-fun lit_131 () Bool (fp.lt lit_94 lit_30))
(define-fun lit_132 () Bool (and lit_130 lit_131))
(define-fun lit_133 () Bool (fp.lt lit_32 lit_10))
(define-fun lit_134 () Bool (and lit_132 lit_133))
(define-fun lit_135 () Bool (fp.lt lit_94 lit_32))
(define-fun lit_136 () Bool (and lit_134 lit_135))
(define-fun lit_137 () Bool (fp.lt lit_34 lit_10))
(define-fun lit_138 () Bool (and lit_136 lit_137))
(define-fun lit_139 () Bool (fp.lt lit_94 lit_34))
(define-fun lit_140 () Bool (and lit_138 lit_139))
(define-fun lit_141 () Bool (fp.lt lit_36 lit_10))
(define-fun lit_142 () Bool (and lit_140 lit_141))
(define-fun lit_143 () Bool (fp.lt lit_94 lit_36))
(define-fun lit_144 () Bool (and lit_142 lit_143))
(define-fun lit_145 () Bool (fp.lt lit_38 lit_10))
(define-fun lit_146 () Bool (and lit_144 lit_145))
(define-fun lit_147 () Bool (fp.lt lit_94 lit_38))
(define-fun lit_148 () Bool (and lit_146 lit_147))
(define-fun lit_149 () Bool (fp.lt lit_40 lit_10))
(define-fun lit_150 () Bool (and lit_148 lit_149))
(define-fun lit_151 () Bool (fp.lt lit_94 lit_40))
(define-fun lit_152 () Bool (and lit_150 lit_151))
(define-fun lit_153 () Bool (fp.lt lit_42 lit_10))
(define-fun lit_154 () Bool (and lit_152 lit_153))
(define-fun lit_155 () Bool (fp.lt lit_94 lit_42))
(define-fun lit_156 () Bool (and lit_154 lit_155))
(define-fun lit_157 () Bool (fp.lt lit_44 lit_10))
(define-fun lit_158 () Bool (and lit_156 lit_157))
(define-fun lit_159 () Bool (fp.lt lit_94 lit_44))
(define-fun lit_160 () Bool (and lit_158 lit_159))
(define-fun lit_161 () Bool (fp.lt lit_46 lit_10))
(define-fun lit_162 () Bool (and lit_160 lit_161))
(define-fun lit_163 () Bool (fp.lt lit_94 lit_46))
(define-fun lit_164 () Bool (and lit_162 lit_163))
(define-fun lit_165 () Bool (fp.lt lit_48 lit_10))
(define-fun lit_166 () Bool (and lit_164 lit_165))
(define-fun lit_167 () Bool (fp.lt lit_94 lit_48))
(define-fun lit_168 () Bool (and lit_166 lit_167))
(define-fun lit_169 () Bool (fp.lt lit_50 lit_10))
(define-fun lit_170 () Bool (and lit_168 lit_169))
(define-fun lit_171 () Bool (fp.lt lit_94 lit_50))
(define-fun lit_172 () Bool (and lit_170 lit_171))
(define-fun lit_173 () Bool (fp.lt lit_52 lit_10))
(define-fun lit_174 () Bool (and lit_172 lit_173))
(define-fun lit_175 () Bool (fp.lt lit_94 lit_52))
(define-fun lit_176 () Bool (and lit_174 lit_175))
(define-fun lit_177 () Bool (fp.lt lit_54 lit_10))
(define-fun lit_178 () Bool (and lit_176 lit_177))
(define-fun lit_179 () Bool (fp.lt lit_94 lit_54))
(define-fun lit_180 () Bool (and lit_178 lit_179))
(define-fun lit_181 () Bool (fp.lt lit_56 lit_10))
(define-fun lit_182 () Bool (and lit_180 lit_181))
(define-fun lit_183 () Bool (fp.lt lit_94 lit_56))
(define-fun lit_184 () Bool (and lit_182 lit_183))
(define-fun lit_185 () Bool (fp.lt lit_58 lit_10))
(define-fun lit_186 () Bool (and lit_184 lit_185))
(define-fun lit_187 () Bool (fp.lt lit_94 lit_58))
(define-fun lit_188 () Bool (and lit_186 lit_187))
(define-fun lit_189 () Bool (fp.lt lit_60 lit_10))
(define-fun lit_190 () Bool (and lit_188 lit_189))
(define-fun lit_191 () Bool (fp.lt lit_94 lit_60))
(define-fun lit_192 () Bool (and lit_190 lit_191))
(define-fun lit_193 () Bool (fp.lt lit_62 lit_10))
(define-fun lit_194 () Bool (and lit_192 lit_193))
(define-fun lit_195 () Bool (fp.lt lit_94 lit_62))
(define-fun lit_196 () Bool (and lit_194 lit_195))
(define-fun lit_197 () Bool (fp.lt lit_64 lit_10))
(define-fun lit_198 () Bool (and lit_196 lit_197))
(define-fun lit_199 () Bool (fp.lt lit_94 lit_64))
(define-fun lit_200 () Bool (and lit_198 lit_199))
(define-fun lit_201 () Bool (fp.lt lit_66 lit_10))
(define-fun lit_202 () Bool (and lit_200 lit_201))
(define-fun lit_203 () Bool (fp.lt lit_94 lit_66))
(define-fun lit_204 () Bool (and lit_202 lit_203))
(define-fun lit_205 () Bool (fp.lt lit_68 lit_10))
(define-fun lit_206 () Bool (and lit_204 lit_205))
(define-fun lit_207 () Bool (fp.lt lit_94 lit_68))
(define-fun lit_208 () Bool (and lit_206 lit_207))
(define-fun lit_209 () Bool (fp.lt lit_70 lit_10))
(define-fun lit_210 () Bool (and lit_208 lit_209))
(define-fun lit_211 () Bool (fp.lt lit_94 lit_70))
(define-fun lit_212 () Bool (and lit_210 lit_211))
(define-fun lit_213 () Bool (fp.lt lit_72 lit_10))
(define-fun lit_214 () Bool (and lit_212 lit_213))
(define-fun lit_215 () Bool (fp.lt lit_94 lit_72))
(define-fun lit_216 () Bool (and lit_214 lit_215))
(define-fun lit_217 () Bool (fp.lt lit_74 lit_10))
(define-fun lit_218 () Bool (and lit_216 lit_217))
(define-fun lit_219 () Bool (fp.lt lit_94 lit_74))
(define-fun lit_220 () Bool (and lit_218 lit_219))
(define-fun lit_221 () Bool (fp.lt lit_76 lit_10))
(define-fun lit_222 () Bool (and lit_220 lit_221))
(define-fun lit_223 () Bool (fp.lt lit_94 lit_76))
(define-fun lit_224 () Bool (and lit_222 lit_223))
(define-fun lit_225 () Bool (fp.lt lit_78 lit_10))
(define-fun lit_226 () Bool (and lit_224 lit_225))
(define-fun lit_227 () Bool (fp.lt lit_94 lit_78))
(define-fun lit_228 () Bool (and lit_226 lit_227))
(define-fun lit_229 () Bool (fp.lt lit_80 lit_10))
(define-fun lit_230 () Bool (and lit_228 lit_229))
(define-fun lit_231 () Bool (fp.lt lit_94 lit_80))
(define-fun lit_232 () Bool (and lit_230 lit_231))
(define-fun lit_233 () Bool (fp.lt lit_82 lit_10))
(define-fun lit_234 () Bool (and lit_232 lit_233))
(define-fun lit_235 () Bool (fp.lt lit_94 lit_82))
(define-fun lit_236 () Bool (and lit_234 lit_235))
(define-fun lit_237 () Bool (fp.lt lit_84 lit_10))
(define-fun lit_238 () Bool (and lit_236 lit_237))
(define-fun lit_239 () Bool (fp.lt lit_94 lit_84))
(define-fun lit_240 () Bool (and lit_238 lit_239))
(define-fun lit_241 () Bool (fp.lt lit_86 lit_10))
(define-fun lit_242 () Bool (and lit_240 lit_241))
(define-fun lit_243 () Bool (fp.lt lit_94 lit_86))
(define-fun lit_244 () Bool (and lit_242 lit_243))
(define-fun lit_245 () Bool (fp.lt lit_88 lit_10))
(define-fun lit_246 () Bool (and lit_244 lit_245))
(define-fun lit_247 () Bool (fp.lt lit_94 lit_88))
(define-fun lit_248 () Bool (and lit_246 lit_247))
(define-fun lit_249 () Bool (fp.lt lit_90 lit_10))
(define-fun lit_250 () Bool (and lit_248 lit_249))
(define-fun lit_251 () Bool (fp.lt lit_94 lit_90))
(define-fun lit_252 () Bool (and lit_250 lit_251))
(define-fun const_1 () (_ FloatingPoint 8 24) ((_ to_fp 8 24) RTN 1.000000000000000000000000000000000000000000000000000000000000000000000000000000000000000000000000000000000000000000000000000000000000000000000000000000000000000000000))
(define-fun const_2 () (_ FloatingPoint 8 24) ((_ to_fp 8 24) RTN 2.000000000000000000000000000000000000000000000000000000000000000000000000000000000000000000000000000000000000000000000000000000000000000000000000000000000000000000000))
(define-fun prop_1 () Bool (fp.lt const_1 const_2))
(define-fun propexp () Bool (and lit_252 prop_1))
(assert propexp)
(check-sat)
;(get-model)
(exit)